p edge 433 413
e 1 2
e 1 3
e 1 4
e 1 5
e 1 6
e 1 7
e 1 8
e 1 9
e 1 10
e 1 11
e 1 12
e 1 13
e 1 14
e 1 15
e 1 16
e 1 17
e 1 18
e 1 19
e 1 20
e 1 21
e 1 22
e 1 23
e 1 24
e 1 25
e 1 26
e 1 27
e 1 28
e 1 29
e 1 30
e 1 31
e 32 33
e 32 34
e 32 35
e 32 36
e 32 37
e 32 38
e 32 39
e 32 40
e 32 41
e 32 42
e 32 43
e 32 44
e 32 45
e 32 46
e 32 47
e 32 48
e 32 49
e 32 50
e 32 51
e 32 52
e 32 53
e 32 54
e 32 55
e 32 56
e 32 57
e 32 58
e 32 59
e 32 60
e 32 61
e 32 62
e 63 64
e 63 65
e 63 66
e 63 67
e 63 68
e 63 69
e 63 70
e 63 71
e 63 72
e 63 73
e 63 74
e 63 75
e 63 76
e 77 78
e 77 79
e 77 80
e 77 81
e 77 82
e 77 83
e 77 84
e 77 85
e 77 86
e 77 87
e 77 88
e 77 89
e 77 90
e 91 92
e 91 93
e 91 94
e 91 95
e 91 96
e 91 97
e 91 98
e 91 99
e 91 100
e 91 101
e 91 102
e 91 103
e 91 104
e 91 105
e 91 106
e 91 107
e 91 108
e 91 109
e 91 110
e 91 111
e 91 112
e 91 113
e 91 114
e 115 116
e 115 117
e 115 118
e 115 119
e 115 120
e 115 121
e 115 122
e 115 123
e 115 124
e 115 125
e 115 126
e 115 127
e 115 128
e 115 129
e 115 130
e 115 131
e 115 132
e 115 133
e 115 134
e 115 135
e 115 136
e 115 137
e 138 139
e 138 140
e 138 141
e 138 142
e 138 143
e 138 144
e 138 145
e 138 146
e 138 147
e 138 148
e 138 149
e 138 150
e 138 151
e 138 152
e 138 153
e 138 154
e 138 155
e 138 156
e 138 157
e 138 158
e 138 159
e 138 160
e 138 161
e 138 162
e 138 163
e 138 164
e 138 165
e 138 166
e 167 168
e 167 169
e 167 170
e 167 171
e 167 172
e 167 173
e 167 174
e 167 175
e 167 176
e 167 177
e 167 178
e 167 179
e 167 180
e 167 181
e 167 182
e 167 183
e 167 184
e 167 185
e 167 186
e 167 187
e 167 188
e 167 189
e 167 190
e 167 191
e 192 193
e 192 194
e 192 195
e 192 196
e 192 197
e 192 198
e 192 199
e 192 200
e 192 201
e 192 202
e 192 203
e 192 204
e 192 205
e 192 206
e 192 207
e 192 208
e 192 209
e 192 210
e 192 211
e 192 212
e 192 213
e 192 214
e 192 215
e 216 217
e 216 218
e 216 219
e 216 220
e 216 221
e 216 222
e 216 223
e 216 224
e 216 225
e 216 226
e 216 227
e 216 228
e 216 229
e 216 230
e 216 231
e 232 233
e 232 234
e 232 235
e 232 236
e 232 237
e 232 238
e 232 239
e 232 240
e 232 241
e 232 242
e 232 243
e 232 244
e 232 245
e 232 246
e 232 247
e 232 248
e 232 249
e 232 250
e 232 251
e 232 252
e 232 253
e 232 254
e 232 255
e 232 256
e 232 257
e 232 258
e 232 259
e 232 260
e 261 262
e 261 263
e 261 264
e 261 265
e 261 266
e 261 267
e 261 268
e 261 269
e 261 270
e 261 271
e 261 272
e 261 273
e 261 274
e 261 275
e 261 276
e 261 277
e 261 278
e 261 279
e 261 280
e 261 281
e 261 282
e 283 284
e 283 285
e 283 286
e 283 287
e 283 288
e 283 289
e 283 290
e 283 291
e 283 292
e 283 293
e 283 294
e 283 295
e 283 296
e 283 297
e 283 298
e 283 299
e 283 300
e 283 301
e 302 303
e 302 304
e 302 305
e 302 306
e 302 307
e 302 308
e 302 309
e 302 310
e 302 311
e 302 312
e 302 313
e 314 315
e 314 316
e 314 317
e 314 318
e 314 319
e 314 320
e 314 321
e 314 322
e 314 323
e 314 324
e 314 325
e 314 326
e 314 327
e 314 328
e 314 329
e 314 330
e 314 331
e 314 332
e 314 333
e 314 334
e 314 335
e 314 336
e 337 338
e 337 339
e 337 340
e 337 341
e 337 342
e 337 343
e 337 344
e 337 345
e 337 346
e 337 347
e 337 348
e 337 349
e 337 350
e 337 351
e 337 352
e 337 353
e 337 354
e 337 355
e 337 356
e 337 357
e 337 358
e 337 359
e 337 360
e 337 361
e 337 362
e 337 363
e 364 365
e 364 366
e 364 367
e 364 368
e 364 369
e 364 370
e 364 371
e 364 372
e 364 373
e 364 374
e 364 375
e 364 376
e 364 377
e 364 378
e 364 379
e 364 380
e 364 381
e 364 382
e 364 383
e 364 384
e 364 385
e 364 386
e 364 387
e 364 388
e 364 389
e 390 391
e 390 392
e 390 393
e 390 394
e 390 395
e 390 396
e 390 397
e 390 398
e 390 399
e 390 400
e 390 401
e 390 402
e 403 404
e 403 405
e 403 406
e 403 407
e 403 408
e 403 409
e 403 410
e 403 411
e 403 412
e 403 413
e 403 414
e 403 415
e 403 416
e 403 417
e 403 418
e 403 419
e 403 420
e 403 421
e 403 422
e 423 424
e 423 425
e 423 426
e 423 427
e 423 428
e 423 429
e 423 430
e 423 431
e 423 432
e 423 433
